
Gurobi 6.5.2 (mac64) logging started Sat Apr  8 17:19:08 2017


Gurobi 6.5.2 (mac64) logging started Sat Apr  8 17:20:46 2017


Gurobi 6.5.2 (mac64) logging started Sat Apr  8 17:23:27 2017


Gurobi 6.5.2 (mac64) logging started Sat Apr  8 17:35:46 2017


Gurobi 6.5.2 (mac64) logging started Sat Apr  8 19:46:35 2017


Gurobi 6.5.2 (mac64) logging started Sat Apr  8 19:52:07 2017


Gurobi 6.5.2 (mac64) logging started Sat Apr  8 19:57:33 2017


Gurobi 6.5.2 (mac64) logging started Sat Apr  8 20:06:15 2017


Gurobi 6.5.2 (mac64) logging started Sat Apr  8 20:10:30 2017


Gurobi 6.5.2 (mac64) logging started Sat Apr  8 20:11:05 2017


Gurobi 6.5.2 (mac64) logging started Sun Apr  9 10:28:46 2017


Gurobi 6.5.2 (mac64) logging started Sun Apr  9 10:31:25 2017


Gurobi 6.5.2 (mac64) logging started Sun Apr  9 10:32:29 2017


Gurobi 6.5.2 (mac64) logging started Sun Apr  9 12:27:47 2017


Gurobi 6.5.2 (mac64) logging started Sun Apr  9 12:29:45 2017


Gurobi 6.5.2 (mac64) logging started Sun Apr  9 12:30:15 2017


Gurobi 6.5.2 (mac64) logging started Sun Apr  9 12:31:11 2017


Gurobi 6.5.2 (mac64) logging started Sun Apr  9 12:31:48 2017


Gurobi 6.5.2 (mac64) logging started Sun Apr  9 12:32:10 2017


Gurobi 6.5.2 (mac64) logging started Sun Apr  9 12:32:46 2017


Gurobi 6.5.2 (mac64) logging started Sun Apr  9 12:33:08 2017


Gurobi 6.5.2 (mac64) logging started Sun Apr  9 12:34:53 2017


Gurobi 6.5.2 (mac64) logging started Sun Apr  9 12:37:19 2017


Gurobi 6.5.2 (mac64) logging started Sun Apr  9 12:43:13 2017


Gurobi 6.5.2 (mac64) logging started Sun Apr  9 12:45:16 2017


Gurobi 6.5.2 (mac64) logging started Sun Apr  9 12:58:54 2017


Gurobi 6.5.2 (mac64) logging started Sun Apr  9 13:04:19 2017


Gurobi 6.5.2 (mac64) logging started Sun Apr  9 13:06:13 2017


Gurobi 6.5.2 (mac64) logging started Sun Apr  9 13:32:32 2017


Gurobi 6.5.2 (mac64) logging started Sun Apr  9 13:37:23 2017


Gurobi 6.5.2 (mac64) logging started Sun Apr  9 14:03:08 2017


Gurobi 6.5.2 (mac64) logging started Sun Apr  9 14:05:03 2017


Gurobi 6.5.2 (mac64) logging started Sun Apr  9 14:08:02 2017


Gurobi 6.5.2 (mac64) logging started Sun Apr  9 14:21:55 2017


Gurobi 6.5.2 (mac64) logging started Mon Apr 10 18:16:35 2017


Gurobi 6.5.2 (mac64) logging started Mon Apr 10 18:17:38 2017


Gurobi 6.5.2 (mac64) logging started Mon Apr 10 18:18:05 2017


Gurobi 6.5.2 (mac64) logging started Mon Apr 10 18:18:22 2017


Gurobi 6.5.2 (mac64) logging started Mon Apr 10 18:18:53 2017


Gurobi 6.5.2 (mac64) logging started Mon Apr 10 18:21:00 2017


Gurobi 6.5.2 (mac64) logging started Mon Apr 10 18:28:48 2017


Gurobi 6.5.2 (mac64) logging started Mon Apr 10 18:34:42 2017


Gurobi 6.5.2 (mac64) logging started Mon Apr 10 18:37:32 2017


Gurobi 6.5.2 (mac64) logging started Mon Apr 10 18:39:40 2017


Gurobi 6.5.2 (mac64) logging started Mon Apr 10 18:41:17 2017


Gurobi 6.5.2 (mac64) logging started Mon Apr 10 18:42:24 2017


Gurobi 6.5.2 (mac64) logging started Mon Apr 10 18:43:25 2017


Gurobi 6.5.2 (mac64) logging started Mon Apr 10 18:45:55 2017


Gurobi 6.5.2 (mac64) logging started Mon Apr 10 18:47:19 2017


Gurobi 6.5.2 (mac64) logging started Mon Apr 10 18:48:00 2017


Gurobi 6.5.2 (mac64) logging started Mon Apr 10 18:55:15 2017


Gurobi 6.5.2 (mac64) logging started Mon Apr 10 18:55:44 2017


Gurobi 6.5.2 (mac64) logging started Mon Apr 10 18:57:36 2017


Gurobi 6.5.2 (mac64) logging started Mon Apr 10 18:59:22 2017


Gurobi 6.5.2 (mac64) logging started Mon Apr 10 19:00:55 2017


Gurobi 6.5.2 (mac64) logging started Mon Apr 10 19:15:41 2017


Gurobi 6.5.2 (mac64) logging started Mon Apr 10 19:18:19 2017


Gurobi 6.5.2 (mac64) logging started Tue Apr 11 22:11:39 2017


Gurobi 6.5.2 (mac64) logging started Tue Apr 11 22:12:36 2017


Gurobi 6.5.2 (mac64) logging started Tue Apr 11 22:19:50 2017


Gurobi 6.5.2 (mac64) logging started Tue Apr 11 22:29:12 2017


Gurobi 6.5.2 (mac64) logging started Tue Apr 11 22:39:33 2017


Gurobi 6.5.2 (mac64) logging started Tue Apr 11 23:02:08 2017


Gurobi 6.5.2 (mac64) logging started Jeu 13 avr 10:50:04 2017


Gurobi 6.5.2 (mac64) logging started Jeu 13 avr 15:23:20 2017


Gurobi 6.5.2 (mac64) logging started Jeu 13 avr 15:24:23 2017


Gurobi 6.5.2 (mac64) logging started Jeu 13 avr 15:24:51 2017


Gurobi 6.5.2 (mac64) logging started Jeu 13 avr 15:26:29 2017


Gurobi 6.5.2 (mac64) logging started Jeu 13 avr 15:27:43 2017


Gurobi 6.5.2 (mac64) logging started Jeu 13 avr 15:28:56 2017


Gurobi 6.5.2 (mac64) logging started Jeu 13 avr 15:29:28 2017


Gurobi 6.5.2 (mac64) logging started Jeu 13 avr 15:31:47 2017


Gurobi 6.5.2 (mac64) logging started Jeu 13 avr 15:32:59 2017


Gurobi 6.5.2 (mac64) logging started Jeu 13 avr 15:33:37 2017


Gurobi 6.5.2 (mac64) logging started Jeu 13 avr 15:34:01 2017


Gurobi 6.5.2 (mac64) logging started Jeu 13 avr 15:34:32 2017


Gurobi 6.5.2 (mac64) logging started Jeu 13 avr 15:35:01 2017


Gurobi 6.5.2 (mac64) logging started Jeu 13 avr 15:35:47 2017


Gurobi 6.5.2 (mac64) logging started Ven 14 avr 01:04:27 2017


Gurobi 6.5.2 (mac64) logging started Ven 14 avr 01:05:51 2017


Gurobi 6.5.2 (mac64) logging started Ven 14 avr 01:07:29 2017


Gurobi 6.5.2 (mac64) logging started Ven 14 avr 01:09:01 2017


Gurobi 6.5.2 (mac64) logging started Ven 14 avr 01:16:56 2017


Gurobi 6.5.2 (mac64) logging started Ven 14 avr 01:17:54 2017


Gurobi 6.5.2 (mac64) logging started Ven 14 avr 01:29:14 2017


Gurobi 6.5.2 (mac64) logging started Ven 14 avr 01:37:52 2017


Gurobi 6.5.2 (mac64) logging started Ven 14 avr 01:42:22 2017


Gurobi 6.5.2 (mac64) logging started Ven 14 avr 01:50:37 2017


Gurobi 6.5.2 (mac64) logging started Sam 15 avr 15:29:04 2017


Gurobi 6.5.2 (mac64) logging started Sam 15 avr 15:30:11 2017


Gurobi 6.5.2 (mac64) logging started Sam 15 avr 15:31:01 2017


Gurobi 6.5.2 (mac64) logging started Sam 15 avr 15:31:30 2017


Gurobi 6.5.2 (mac64) logging started Sam 15 avr 15:31:49 2017


Gurobi 6.5.2 (mac64) logging started Sam 15 avr 15:35:16 2017


Gurobi 6.5.2 (mac64) logging started Sam 15 avr 15:40:05 2017


Gurobi 6.5.2 (mac64) logging started Sam 15 avr 15:40:45 2017


Gurobi 6.5.2 (mac64) logging started Sam 15 avr 15:41:47 2017


Gurobi 6.5.2 (mac64) logging started Sam 15 avr 15:46:44 2017


Gurobi 6.5.2 (mac64) logging started Sam 15 avr 15:48:52 2017


Gurobi 6.5.2 (mac64) logging started Sam 15 avr 15:54:59 2017


Gurobi 6.5.2 (mac64) logging started Sam 15 avr 15:57:37 2017


Gurobi 6.5.2 (mac64) logging started Sam 15 avr 15:59:38 2017


Gurobi 6.5.2 (mac64) logging started Sam 15 avr 16:01:02 2017


Gurobi 6.5.2 (mac64) logging started Sam 15 avr 16:03:34 2017


Gurobi 6.5.2 (mac64) logging started Sam 15 avr 16:06:28 2017


Gurobi 6.5.2 (mac64) logging started Sam 15 avr 16:13:14 2017


Gurobi 6.5.2 (mac64) logging started Sam 15 avr 16:14:04 2017


Gurobi 6.5.2 (mac64) logging started Sam 15 avr 16:17:57 2017


Gurobi 6.5.2 (mac64) logging started Sam 15 avr 16:19:51 2017


Gurobi 6.5.2 (mac64) logging started Sam 15 avr 16:25:41 2017


Gurobi 6.5.2 (mac64) logging started Sam 15 avr 16:30:20 2017


Gurobi 6.5.2 (mac64) logging started Sam 15 avr 16:34:50 2017


Gurobi 6.5.2 (mac64) logging started Sam 15 avr 16:38:19 2017


Gurobi 6.5.2 (mac64) logging started Sam 15 avr 16:50:45 2017


Gurobi 6.5.2 (mac64) logging started Sam 15 avr 16:55:12 2017


Gurobi 6.5.2 (mac64) logging started Sam 15 avr 16:56:51 2017


Gurobi 6.5.2 (mac64) logging started Sam 15 avr 17:00:43 2017


Gurobi 6.5.2 (mac64) logging started Sam 15 avr 17:01:16 2017


Gurobi 6.5.2 (mac64) logging started Sam 15 avr 17:02:10 2017


Gurobi 6.5.2 (mac64) logging started Sam 15 avr 17:03:42 2017


Gurobi 6.5.2 (mac64) logging started Sam 15 avr 17:23:19 2017


Gurobi 6.5.2 (mac64) logging started Sam 15 avr 17:45:59 2017


Gurobi 6.5.2 (mac64) logging started Sam 15 avr 17:52:07 2017


Gurobi 6.5.2 (mac64) logging started Sam 15 avr 17:52:52 2017


Gurobi 6.5.2 (mac64) logging started Sam 15 avr 17:58:21 2017


Gurobi 6.5.2 (mac64) logging started Sam 15 avr 18:00:21 2017


Gurobi 6.5.2 (mac64) logging started Sam 15 avr 18:09:23 2017


Gurobi 6.5.2 (mac64) logging started Sam 15 avr 18:09:47 2017


Gurobi 6.5.2 (mac64) logging started Sam 15 avr 18:11:18 2017


Gurobi 6.5.2 (mac64) logging started Sam 15 avr 18:12:36 2017


Gurobi 6.5.2 (mac64) logging started Sam 15 avr 18:30:29 2017


Gurobi 6.5.2 (mac64) logging started Sam 15 avr 18:32:07 2017


Gurobi 6.5.2 (mac64) logging started Sam 15 avr 18:32:37 2017


Gurobi 6.5.2 (mac64) logging started Sam 15 avr 18:33:29 2017


Gurobi 6.5.2 (mac64) logging started Sam 15 avr 18:34:40 2017


Gurobi 6.5.2 (mac64) logging started Sam 15 avr 18:35:02 2017


Gurobi 6.5.2 (mac64) logging started Sam 15 avr 18:36:25 2017


Gurobi 6.5.2 (mac64) logging started Sam 15 avr 18:39:20 2017


Gurobi 6.5.2 (mac64) logging started Sam 15 avr 18:42:06 2017


Gurobi 6.5.2 (mac64) logging started Sam 15 avr 18:45:37 2017


Gurobi 6.5.2 (mac64) logging started Sam 15 avr 18:49:08 2017


Gurobi 6.5.2 (mac64) logging started Sam 15 avr 19:11:48 2017


Gurobi 6.5.2 (mac64) logging started Sam 15 avr 19:13:05 2017

